%-----------------------------------------------------------------------------%
% Dual Arm Multi Capacity Multi Tool Scheduling / Routing
% Assembly Configuration
% Auto Generated by python script, authored by Johan Ludde Wessen 
%-----------------------------------------------------------------------------%


task_durations = [|21, 25, 25, 26, 20, 31, 42, 52, 49, 50, 51, 46, 37, 23,  7,  5,  5,  6,  5
                  |25, 31, 29, 22, 22, 27, 47, 55, 52, 59, 51, 48, 30, 29,  5,  6,  4,  5,  6
                  |];


TRAY_TASKS = 1..4;
CAMERA_TASKS = 13..14;
OUTPUT_TASKS = { 12 };


empty_gripper_tasks = 15..19;


gripper_pick_tasks_orders = [|1, 7, -1
|2, 8, -1
|5, 11, -1
|6, 12, -1
|];

suction_pick_tasks_orders = [|3, 13, 9, -1
|4, 14, 10, -1
|];

fixture_task_orders = [|9, 17, 7, 15, 5, -1, -1, -1
|10, 18, 8, 16, 11, 19, 6, -1
|];

